# Objective value = 10
x0,1_2 0
x0,1_23 0
x0,1_28 0
x0,1_29 0
x0,1_32 0
x0,1_35 0
x0,1_42 0
x0,1_45 0
x0,1_69 0
x0,1_72 0
x0,2_2 0
x0,2_23 0
x0,2_28 0
x0,2_29 0
x0,2_32 0
x0,2_35 0
x0,2_42 0
x0,2_45 0
x0,2_69 0
x0,2_72 0
x0,3_2 0
x0,3_23 0
x0,3_28 0
x0,3_29 0
x0,3_32 0
x0,3_35 0
x0,3_42 0
x0,3_45 0
x0,3_69 0
x0,3_72 0
x0,4_2 0
x0,4_23 0
x0,4_28 0
x0,4_29 0
x0,4_32 1
x0,4_35 0
x0,4_42 0
x0,4_45 0
x0,4_69 0
x0,4_72 0
x0,5_2 0
x0,5_23 0
x0,5_28 0
x0,5_29 0
x0,5_32 0
x0,5_35 0
x0,5_42 0
x0,5_45 0
x0,5_69 0
x0,5_72 0
x0,6_2 0
x0,6_23 0
x0,6_28 0
x0,6_29 0
x0,6_32 0
x0,6_35 0
x0,6_42 0
x0,6_45 1
x0,6_69 0
x0,6_72 0
x0,7_2 0
x0,7_23 0
x0,7_28 0
x0,7_29 0
x0,7_32 0
x0,7_35 0
x0,7_42 0
x0,7_45 0
x0,7_69 0
x0,7_72 1
x1,2_2 1
x1,2_23 0
x1,2_28 0
x1,2_29 0
x1,2_32 0
x1,2_35 0
x1,2_42 0
x1,2_45 0
x1,2_69 0
x1,2_72 0
x1,3_2 0
x1,3_23 0
x1,3_28 0
x1,3_29 0
x1,3_32 0
x1,3_35 0
x1,3_42 0
x1,3_45 0
x1,3_69 0
x1,3_72 0
x1,4_2 0
x1,4_23 0
x1,4_28 0
x1,4_29 0
x1,4_32 0
x1,4_35 0
x1,4_42 0
x1,4_45 0
x1,4_69 0
x1,4_72 0
x1,5_2 0
x1,5_23 0
x1,5_28 0
x1,5_29 0
x1,5_32 0
x1,5_35 0
x1,5_42 0
x1,5_45 0
x1,5_69 0
x1,5_72 0
x1,6_2 0
x1,6_23 0
x1,6_28 0
x1,6_29 0
x1,6_32 0
x1,6_35 0
x1,6_42 0
x1,6_45 0
x1,6_69 0
x1,6_72 0
x1,7_2 0
x1,7_23 0
x1,7_28 0
x1,7_29 0
x1,7_32 0
x1,7_35 0
x1,7_42 0
x1,7_45 0
x1,7_69 0
x1,7_72 0
x2,3_2 0
x2,3_23 0
x2,3_28 0
x2,3_29 0
x2,3_32 0
x2,3_35 0
x2,3_42 0
x2,3_45 0
x2,3_69 0
x2,3_72 0
x2,4_2 0
x2,4_23 0
x2,4_28 0
x2,4_29 1
x2,4_32 0
x2,4_35 0
x2,4_42 0
x2,4_45 0
x2,4_69 0
x2,4_72 0
x2,5_2 0
x2,5_23 0
x2,5_28 0
x2,5_29 0
x2,5_32 0
x2,5_35 0
x2,5_42 0
x2,5_45 0
x2,5_69 0
x2,5_72 0
x2,6_2 0
x2,6_23 0
x2,6_28 0
x2,6_29 0
x2,6_32 0
x2,6_35 0
x2,6_42 1
x2,6_45 0
x2,6_69 0
x2,6_72 0
x2,7_2 0
x2,7_23 0
x2,7_28 0
x2,7_29 0
x2,7_32 0
x2,7_35 0
x2,7_42 0
x2,7_45 0
x2,7_69 1
x2,7_72 0
x3,4_2 0
x3,4_23 1
x3,4_28 0
x3,4_29 0
x3,4_32 0
x3,4_35 0
x3,4_42 0
x3,4_45 0
x3,4_69 0
x3,4_72 0
x3,5_2 0
x3,5_23 0
x3,5_28 1
x3,5_29 0
x3,5_32 0
x3,5_35 0
x3,5_42 0
x3,5_45 0
x3,5_69 0
x3,5_72 0
x3,6_2 0
x3,6_23 0
x3,6_28 0
x3,6_29 0
x3,6_32 0
x3,6_35 0
x3,6_42 0
x3,6_45 0
x3,6_69 0
x3,6_72 0
x3,7_2 0
x3,7_23 0
x3,7_28 0
x3,7_29 0
x3,7_32 0
x3,7_35 0
x3,7_42 0
x3,7_45 0
x3,7_69 0
x3,7_72 0
x4,5_2 0
x4,5_23 0
x4,5_28 0
x4,5_29 0
x4,5_32 0
x4,5_35 0
x4,5_42 0
x4,5_45 0
x4,5_69 0
x4,5_72 0
x4,6_2 0
x4,6_23 0
x4,6_28 0
x4,6_29 0
x4,6_32 0
x4,6_35 0
x4,6_42 0
x4,6_45 0
x4,6_69 0
x4,6_72 0
x4,7_2 0
x4,7_23 0
x4,7_28 0
x4,7_29 0
x4,7_32 0
x4,7_35 0
x4,7_42 0
x4,7_45 0
x4,7_69 0
x4,7_72 0
x5,6_2 0
x5,6_23 0
x5,6_28 0
x5,6_29 0
x5,6_32 0
x5,6_35 0
x5,6_42 0
x5,6_45 0
x5,6_69 0
x5,6_72 0
x5,7_2 0
x5,7_23 0
x5,7_28 0
x5,7_29 0
x5,7_32 0
x5,7_35 1
x5,7_42 0
x5,7_45 0
x5,7_69 0
x5,7_72 0
x6,7_2 0
x6,7_23 0
x6,7_28 0
x6,7_29 0
x6,7_32 0
x6,7_35 0
x6,7_42 0
x6,7_45 0
x6,7_69 0
x6,7_72 0
p0 0
p1 1
p2 3
p3 9
p4 32
p5 37
p6 45
p7 72
